numerics/lpfeastol = 1e-08
presolving:
(round 1, fast)       196 del vars, 464 del conss, 0 add conss, 396 chg bounds, 0 chg sides, 0 chg coeffs, 64 upgd conss, 0 impls, 0 clqs
(round 2, fast)       197 del vars, 465 del conss, 0 add conss, 581 chg bounds, 0 chg sides, 4 chg coeffs, 64 upgd conss, 8 impls, 6 clqs
(round 3, fast)       197 del vars, 465 del conss, 0 add conss, 593 chg bounds, 0 chg sides, 4 chg coeffs, 64 upgd conss, 8 impls, 6 clqs
(round 4, exhaustive) 197 del vars, 465 del conss, 0 add conss, 593 chg bounds, 0 chg sides, 4 chg coeffs, 182 upgd conss, 8 impls, 6 clqs
(round 5, fast)       197 del vars, 465 del conss, 0 add conss, 633 chg bounds, 0 chg sides, 4 chg coeffs, 182 upgd conss, 112 impls, 6 clqs
   (0.0s) probing cycle finished: starting next cycle
(round 6, exhaustive) 197 del vars, 465 del conss, 0 add conss, 713 chg bounds, 0 chg sides, 4 chg coeffs, 182 upgd conss, 904 impls, 42 clqs
(round 7, fast)       197 del vars, 465 del conss, 0 add conss, 713 chg bounds, 0 chg sides, 20 chg coeffs, 182 upgd conss, 904 impls, 42 clqs
   (0.0s) probing cycle finished: starting next cycle
presolving (8 rounds: 8 fast, 3 medium, 3 exhaustive):
 197 deleted vars, 465 deleted constraints, 0 added constraints, 713 tightened bounds, 0 added holes, 0 changed sides, 20 changed coefficients
 968 implications, 42 cliques
presolved problem has 224 variables (28 bin, 0 int, 0 impl, 196 cont) and 294 constraints
     64 constraints of type <soc>
    112 constraints of type <varbound>
      6 constraints of type <setppc>
    112 constraints of type <linear>
Presolving Time: 0.02
numerics/lpfeastol = 1e-08

  node  | left  |LP iter|LP it/n| mem |  dualbound   | primalbound  |  gap   
      1 |     0 |   185 |     - |3608k| 0.000000e+00 |      --      |    Inf 
      1 |     0 |   347 |     - |3680k| 0.000000e+00 |      --      |    Inf 
      1 |     0 |   396 |     - |3682k| 0.000000e+00 |      --      |    Inf 
      1 |     0 |   447 |     - |3815k| 0.000000e+00 |      --      |    Inf 
      1 |     0 |   480 |     - |3880k| 0.000000e+00 |      --      |    Inf 
      1 |     0 |   513 |     - |3954k| 0.000000e+00 |      --      |    Inf 
      1 |     0 |   528 |     - |3955k| 0.000000e+00 |      --      |    Inf 
      1 |     0 |  1253 |     - |3970k| 0.000000e+00 |      --      |    Inf 
      1 |     0 |  1269 |     - |3974k| 0.000000e+00 |      --      |    Inf 
      1 |     0 |  1277 |     - |3974k| 0.000000e+00 |      --      |    Inf 
      1 |     0 |  1284 |     - |3975k| 0.000000e+00 |      --      |    Inf 
      1 |     0 |  1288 |     - |3975k| 0.000000e+00 |      --      |    Inf 
      1 |     0 |  1292 |     - |3975k| 0.000000e+00 |      --      |    Inf 
      1 |     0 |  1296 |     - |3976k| 0.000000e+00 |      --      |    Inf 
      1 |     0 |  1324 |     - |4004k| 0.000000e+00 |      --      |    Inf 
  node  | left  |LP iter|LP it/n| mem |  dualbound   | primalbound  |  gap   
      1 |     0 |  1328 |     - |4004k| 0.000000e+00 |      --      |    Inf 
      1 |     0 |  1339 |     - |4004k| 0.000000e+00 |      --      |    Inf 
      1 |     2 |  1339 |     - |4004k| 0.000000e+00 |      --      |    Inf 
c     6 |     7 |  1653 | 233.0 |4137k| 0.000000e+00 | 9.950000e+03 |    Inf 
f    14 |    15 |  2162 | 128.8 |4809k| 1.680000e+03 | 7.175000e+03 | 327.08%
c    27 |    22 |  3872 | 130.2 |5265k| 1.680000e+03 | 7.025000e+03 | 318.15%
*    76 |    58 |  8349 | 104.8 |6789k| 3.300000e+03 | 6.725000e+03 | 103.79%
*    97 |    61 |  9024 |  88.9 |6844k| 3.300000e+03 | 6.605000e+03 | 100.15%
    100 |    64 |  9166 |  87.7 |6851k| 3.300000e+03 | 6.605000e+03 | 100.15%
    200 |    86 | 11713 |  56.4 |8493k| 3.835000e+03 | 6.605000e+03 |  72.23%
    300 |    84 | 13978 |  45.1 |8759k| 3.930000e+03 | 6.605000e+03 |  68.07%
*   373 |    85 | 15805 |  41.2 |8879k| 4.705000e+03 | 6.545000e+03 |  39.11%
    400 |    84 | 16379 |  39.8 |8884k| 4.705000e+03 | 6.545000e+03 |  39.11%
    500 |    66 | 18010 |  35.1 |8916k| 4.705000e+03 | 6.545000e+03 |  39.11%
    600 |    50 | 20011 |  32.6 |9074k| 5.030000e+03 | 6.545000e+03 |  30.12%
  node  | left  |LP iter|LP it/n| mem |  dualbound   | primalbound  |  gap   
    700 |    24 | 21865 |  30.6 |9082k| 5.185000e+03 | 6.545000e+03 |  26.23%

SCIP Status        : problem is solved [optimal solution found]
Solving Time (sec) : 3.05
Solving Nodes      : 754
Primal Bound       : +6.54500000000000e+03 (9 solutions)
Dual Bound         : +6.54500000000000e+03
Gap                : 0.00 %
  [quadratic] <quadcons>:  -<_var304_>[C]^2 +<_var305_>[C]^2 +<_var306_>[C]^2 <= 0;
violation: right hand side is violated by 1.68438418768346e-08 (scaled: 1.68438418768346e-08)
best solution is not feasible in original problem
#SOLVERNAME# SCIP_MISOCP
#SOLVER# SCIP.SCIPSolver(("limits/gap", 1.0e-5, "numerics/feastol", 1.0e-8, "limits/time", 3600.0))
#INSTANCE# clay0204h.cbf.gz
#TIMELIMIT# 3600.0
#STATUS# Optimal
#OBJVAL# 6545.0
#OBJBOUND# 6545.0
#NODECOUNT# NaN
#TIMESOLVER# 3.05
#TIMEALL# 3.913543939590454
#SOLUTION# [0.0,4.0,3.5,4.0,3.5,7.5,5.5,0.0,0.0,5.5,5.5,0.0,6545.0,49.999999999767866,49.999999999767866,45.999999999767866,53.499999999767866,81.36749699758825,86.86749699758825,81.36749699758825,81.36749699758825,0.0,0.0,49.999999999767866,0.0,0.0,49.999999999767866,0.0,0.0,49.999999999767866,0.0,0.0,0.0,0.0,0.0,49.999999999767866,0.0,0.0,0.0,0.0,49.999999999767866,0.0,0.0,0.0,49.999999999767866,0.0,45.999999999767866,0.0,0.0,0.0,0.0,0.0,45.999999999767866,45.999999999767866,0.0,0.0,0.0,53.499999999767866,0.0,0.0,0.0,0.0,0.0,0.0,53.499999999767866,53.499999999767866,0.0,0.0,0.0,0.0,0.0,81.36749699758825,0.0,0.0,81.36749699758825,0.0,0.0,81.36749699758825,0.0,0.0,0.0,0.0,0.0,86.86749699758825,0.0,0.0,0.0,0.0,86.86749699758825,0.0,0.0,0.0,86.86749699758825,0.0,81.36749699758825,0.0,0.0,0.0,0.0,0.0,81.36749699758825,81.36749699758825,0.0,0.0,0.0,81.36749699758825,0.0,0.0,0.0,0.0,0.0,0.0,81.36749699758825,81.36749699758825,0.0,0.0,0.0,0.0,0.0,1.0,0.0,1.0,0.0,1.0,0.0,0.0,0.0,0.0,0.0,0.0,0.0,0.0,0.0,0.0,0.0,1.0,1.0,1.0,0.0,0.0,0.0,0.0,49.999999999767866,0.0,49.999999999767866,0.0,45.999999999767866,0.0,53.499999999767866,0.0,81.36749699758825,0.0,86.86749699758825,0.0,81.36749699758825,0.0,81.36749699758825,0.0,0.0,0.0,0.0,1.0,1.0,1.0,1.0,1.0923240318424461e-12,-1.0923240318424461e-12,2.5801604153700162e-12,-6.282418334819742e-13,-1.1496331490912838e-12,1.1496331490912838e-12,1.240213362408598e-12,-1.240213362408598e-12,2499.9999999764914,6620.669567653167,2499.9999999759,7545.9620346254405,2115.999999978162,6620.669567650403,2862.2499999743754,6620.669567653264,0.0,0.0,6.282418334819742e-13,-6.282418334819742e-13,3.3353951088936065e-12,-6.282418334819742e-13,0.0,0.0,2591.0849339257493,6620.669567649526,2568.6749699521642,7545.962034625058,2185.7324429297096,6620.669567653264,2862.2499999750594,6620.669567651642,7.117431022803359e-12,-7.117431022803359e-12,0.0,-6.282418334819742e-13,2.069015129127743e-12,-2.069015129127743e-12,2.760684117551282e-12,-2.760684117551282e-12,2499.999999976361,6620.669567649888,2499.9999999759457,7545.962034628644,2115.99999997761,6620.669567651642,2862.24999997421,6620.669567653264,-7.726883589438013e-12,7.726883589438013e-12,2.069015129127743e-12,-6.263048452006241e-13,3.3369035267403348e-12,-7.115831104004116e-13,7.093782059757569e-13,-7.093782059757569e-13,2499.999999975666,6620.6695676511235,2568.674969954899,7545.962034625573,2115.9999999779325,6620.669567653264,2941.982442934328,6620.669567649807]
